NAME : a280
COMMENT : drilling problem (Ludwig)
TYPE : TSP
DIMENSION: 11
EDGE_WEIGHT_TYPE : EUC_2D
NODE_COORD_SECTION
  1 288 149
  2 288 129
  3 270 133
  4 212 145
  5 220 145
  6 228 145
  7 236 145
  8 246 141
  9 252 125
 10 260 129
 11 280 133
EOF
